
Gurobi 7.5.2 (linux64) logging started Wed Apr 25 18:30:57 2018

Academic license - for non-commercial use only

Gurobi Optimizer version 7.5.2 build v7.5.2rc1 (linux64)
Copyright (c) 2017, Gurobi Optimization, Inc.


ERROR 10003: Unable to open file 'abz5.lp' for input

